Maximize
F - f1 - f2

Subject to
F - 0y7 - 0y9 - 0y20 - 4y29 - 4y124 - 6y136 - 6y141 - 8y111 - 4y115 - 6y2 - 4y53 - 8y30 - 8y121 - 6y73 - 4y134 - 4y137 - 4y87 - 6y81 - 6y179 - 8y1 - 2y12 - 4y127 = 0
f1 - 0.006342s7 - 0.006342s9 - 0.006342s20 - 0.006342s29 - 0.006342s124 - 0.006342s136 - 0.006342s141 - 0.006342s111 - 0.006342s115 - 0.006342s2 - 0.006342s53 - 0.006342s30 - 0.006342s121 - 0.006342s73 - 0.006342s134 - 0.006342s137 - 0.006342s87 - 0.006342s81 - 0.006342s179 - 0.006342s1 - 0.006342s12 - 0.006342s127  = 0
f2 - 3.46y7 - 2.03y9 - 3.48y20 - 3.65y29 - 2.08y124 - 2.26y136 - 3.03y141 - 2.30y111 - 1.62y115 - 1.55y2 - 1.89y53 - 2.54y30 - 2.38y121 - 1.37y73 - 1.74y134 - 1.11y137 - 1.46y87 - 1.07y81 - 0.86y179 - 0.96y1 - 0.83y12 - 1.85y127 = 0

x43x9x1 + x43x115x1 + x43x2x1 + x43x53x1 + x43x30x1 + x43x73x1 + x43x134x1 + x43x179x1 + x43x1x1 + x43x127x1 
<= 1
x90x9x1 + x90x136x1 + x90x115x1 + x90x2x1 + x90x53x1 + x90x30x1 + x90x73x1 + x90x134x1 + x90x179x1 + x90x1x1 + x90x127x1 
<= 1
x20x115x1 + x20x2x1 + x20x53x1 + x20x30x1 + x20x73x1 + x20x134x1 + x20x179x1 + x20x1x1 + x20x127x1 
<= 1
x110x115x1 + x110x2x1 + x110x53x1 + x110x73x1 + x110x134x1 + x110x179x1 + x110x1x1 + x110x127x1 
<= 1
x9x115x1 + x9x2x1 + x9x53x1 + x9x30x1 + x9x73x1 + x9x134x1 + x9x179x1 + x9x1x1 + x9x127x1 
<= 2

x80x137x2 + x80x87x2 + x80x12x2 + x80x127x2 
<= 1
x7x2x2 + x7x53x2 + x7x30x2 + x7x121x2 + x7x137x2 + x7x87x2 + x7x12x2 + x7x127x2 
<= 1
x90x111x2 + x90x2x2 + x90x53x2 + x90x30x2 + x90x121x2 + x90x137x2 + x90x87x2 + x90x12x2 + x90x127x2 
<= 1
x20x111x2 + x20x2x2 + x20x53x2 + x20x30x2 + x20x121x2 + x20x137x2 + x20x87x2 + x20x12x2 + x20x127x2 
<= 1
x172x2x2 + x172x53x2 + x172x30x2 + x172x121x2 + x172x137x2 + x172x87x2 + x172x12x2 + x172x127x2 
<= 1
x110x2x2 + x110x53x2 + x110x121x2 + x110x137x2 + x110x87x2 + x110x12x2 + x110x127x2 
<= 1
x43x124x3 + x43x111x3 + x43x115x3 + x43x73x3 + x43x134x3 + x43x137x3 + x43x81x3 + x43x179x3 + x43x1x3 + x43x12x3 
<= 1
x80x137x3 + x80x81x3 + x80x179x3 + x80x1x3 + x80x12x3 
<= 1
x7x115x3 + x7x73x3 + x7x134x3 + x7x137x3 + x7x81x3 + x7x179x3 + x7x1x3 + x7x12x3 
<= 1
x120x115x3 + x120x73x3 + x120x134x3 + x120x137x3 + x120x81x3 + x120x179x3 + x120x1x3 + x120x12x3 
<= 2
x172x115x3 + x172x73x3 + x172x134x3 + x172x137x3 + x172x81x3 + x172x179x3 + x172x1x3 + x172x12x3 
<= 1


- x7x137x2 - x7x87x2 - x7x12x2 - x7x127x2 
= 0

- x7x134x3 - x7x137x3 - x7x81x3 - x7x179x3 - x7x1x3 - x7x12x3 
= 0

x43x9x1 + x90x9x1 
- x9x0x1
- x9x115x1 - x9x2x1 - x9x53x1 - x9x30x1 - x9x73x1 - x9x134x1 - x9x179x1 - x9x1x1 - x9x127x1 
= 0




- x20x30x1 - x20x134x1 - x20x179x1 - x20x1x1 - x20x127x1 
= 0

- x20x30x2 - x20x121x2 - x20x137x2 - x20x87x2 - x20x12x2 - x20x127x2 
= 0



- x29x179x1 - x29x1x1 - x29x127x1 
= 0

- x29x121x2 - x29x137x2 - x29x87x2 - x29x12x2 - x29x127x2 
= 0




x43x124x3 
- x124x0x3
- x124x115x3 - x124x73x3 - x124x134x3 - x124x137x3 - x124x81x3 - x124x179x3 - x124x1x3 - x124x12x3 
= 0

x90x136x1 
- x136x0x1
- x136x115x1 - x136x2x1 - x136x53x1 - x136x30x1 - x136x73x1 - x136x134x1 - x136x179x1 - x136x1x1 - x136x127x1 
= 0




- x141x53x1 - x141x30x1 - x141x73x1 - x141x134x1 - x141x179x1 - x141x1x1 - x141x127x1 
= 0




x90x111x2 + x20x111x2 
- x111x0x2
- x111x2x2 - x111x53x2 - x111x30x2 - x111x121x2 - x111x137x2 - x111x87x2 - x111x12x2 - x111x127x2 
= 0
x43x111x3 
- x111x0x3
- x111x73x3 - x111x134x3 - x111x137x3 - x111x81x3 - x111x179x3 - x111x1x3 - x111x12x3 
= 0

x43x115x1 + x90x115x1 + x20x115x1 + x110x115x1 + x9x115x1 + x9x115x1 + x136x115x1 
- x115x0x1
- x115x179x1 - x115x1x1 - x115x127x1 
= 0

x43x115x3 + x7x115x3 + x120x115x3 + x172x115x3 + x124x115x3 
- x115x0x3
- x115x137x3 - x115x81x3 - x115x179x3 - x115x1x3 - x115x12x3 
= 0

x43x2x1 + x90x2x1 + x20x2x1 + x110x2x1 + x9x2x1 + x9x2x1 + x136x2x1 
- x2x0x1
- x2x179x1 - x2x1x1 - x2x127x1 
= 0
x7x2x2 + x90x2x2 + x20x2x2 + x172x2x2 + x110x2x2 + x111x2x2 
- x2x0x2
- x2x137x2 - x2x87x2 - x2x12x2 - x2x127x2 
= 0


x43x53x1 + x90x53x1 + x20x53x1 + x110x53x1 + x9x53x1 + x9x53x1 + x136x53x1 + x141x53x1 
- x53x0x1
- x53x134x1 - x53x179x1 - x53x1x1 - x53x127x1 
= 0
x7x53x2 + x90x53x2 + x20x53x2 + x172x53x2 + x110x53x2 + x111x53x2 
- x53x0x2
- x53x137x2 - x53x87x2 - x53x12x2 - x53x127x2 
= 0


x43x30x1 + x90x30x1 + x20x30x1 + x9x30x1 + x9x30x1 + x20x30x1 + x136x30x1 + x141x30x1 
- x30x0x1
- x30x179x1 - x30x1x1 - x30x127x1 
= 0
x7x30x2 + x90x30x2 + x20x30x2 + x172x30x2 + x20x30x2 + x111x30x2 
- x30x0x2
- x30x121x2 - x30x87x2 - x30x12x2 - x30x127x2 
= 0



x7x121x2 + x90x121x2 + x20x121x2 + x172x121x2 + x110x121x2 + x20x121x2 + x29x121x2 + x111x121x2 + x30x121x2 
- x121x0x2
- x121x87x2 - x121x12x2 - x121x127x2 
= 0


x43x73x1 + x90x73x1 + x20x73x1 + x110x73x1 + x9x73x1 + x9x73x1 + x136x73x1 + x141x73x1 
- x73x0x1
- x73x179x1 - x73x1x1 - x73x127x1 
= 0

x43x73x3 + x7x73x3 + x120x73x3 + x172x73x3 + x124x73x3 + x111x73x3 
- x73x0x3
- x73x137x3 - x73x81x3 - x73x179x3 - x73x1x3 - x73x12x3 
= 0

x43x134x1 + x90x134x1 + x20x134x1 + x110x134x1 + x9x134x1 + x9x134x1 + x20x134x1 + x136x134x1 + x141x134x1 + x53x134x1 
- x134x0x1
- x134x179x1 - x134x1x1 - x134x127x1 
= 0

x43x134x3 + x7x134x3 + x120x134x3 + x172x134x3 + x7x134x3 + x124x134x3 + x111x134x3 
- x134x0x3
- x134x81x3 - x134x179x3 - x134x1x3 - x134x12x3 
= 0


x80x137x2 + x7x137x2 + x90x137x2 + x20x137x2 + x172x137x2 + x110x137x2 + x7x137x2 + x20x137x2 + x29x137x2 + x111x137x2 + x2x137x2 + x53x137x2 
- x137x0x2
- x137x12x2 - x137x127x2 
= 0
x43x137x3 + x80x137x3 + x7x137x3 + x120x137x3 + x172x137x3 + x7x137x3 + x124x137x3 + x111x137x3 + x115x137x3 + x73x137x3 
- x137x0x3
- x137x81x3 - x137x179x3 - x137x1x3 - x137x12x3 
= 0


x80x87x2 + x7x87x2 + x90x87x2 + x20x87x2 + x172x87x2 + x110x87x2 + x7x87x2 + x20x87x2 + x29x87x2 + x111x87x2 + x2x87x2 + x53x87x2 + x30x87x2 + x121x87x2 
- x87x0x2
- x87x12x2 - x87x127x2 
= 0




x43x81x3 + x80x81x3 + x7x81x3 + x120x81x3 + x172x81x3 + x7x81x3 + x124x81x3 + x111x81x3 + x115x81x3 + x73x81x3 + x134x81x3 + x137x81x3 
- x81x0x3
- x81x1x3 - x81x12x3 
= 0

x43x179x1 + x90x179x1 + x20x179x1 + x110x179x1 + x9x179x1 + x9x179x1 + x20x179x1 + x29x179x1 + x136x179x1 + x141x179x1 + x115x179x1 + x2x179x1 + x53x179x1 + x30x179x1 + x73x179x1 + x134x179x1 
- x179x0x1

= 0

x43x179x3 + x80x179x3 + x7x179x3 + x120x179x3 + x172x179x3 + x7x179x3 + x124x179x3 + x111x179x3 + x115x179x3 + x73x179x3 + x134x179x3 + x137x179x3 
- x179x0x3

= 0

x43x1x1 + x90x1x1 + x20x1x1 + x110x1x1 + x9x1x1 + x9x1x1 + x20x1x1 + x29x1x1 + x136x1x1 + x141x1x1 + x115x1x1 + x2x1x1 + x53x1x1 + x30x1x1 + x73x1x1 + x134x1x1 
- x1x0x1

= 0

x43x1x3 + x80x1x3 + x7x1x3 + x120x1x3 + x172x1x3 + x7x1x3 + x124x1x3 + x111x1x3 + x115x1x3 + x73x1x3 + x134x1x3 + x137x1x3 + x81x1x3 
- x1x0x3

= 0


x80x12x2 + x7x12x2 + x90x12x2 + x20x12x2 + x172x12x2 + x110x12x2 + x7x12x2 + x20x12x2 + x29x12x2 + x111x12x2 + x2x12x2 + x53x12x2 + x30x12x2 + x121x12x2 + x137x12x2 + x87x12x2 
- x12x0x2

= 0
x43x12x3 + x80x12x3 + x7x12x3 + x120x12x3 + x172x12x3 + x7x12x3 + x124x12x3 + x111x12x3 + x115x12x3 + x73x12x3 + x134x12x3 + x137x12x3 + x81x12x3 
- x12x0x3

= 0

x43x127x1 + x90x127x1 + x20x127x1 + x110x127x1 + x9x127x1 + x9x127x1 + x20x127x1 + x29x127x1 + x136x127x1 + x141x127x1 + x115x127x1 + x2x127x1 + x53x127x1 + x30x127x1 + x73x127x1 + x134x127x1 
- x127x0x1

= 0
x80x127x2 + x7x127x2 + x90x127x2 + x20x127x2 + x172x127x2 + x110x127x2 + x7x127x2 + x20x127x2 + x29x127x2 + x111x127x2 + x2x127x2 + x53x127x2 + x30x127x2 + x121x127x2 + x137x127x2 + x87x127x2 
- x127x0x2

= 0


1y7 = 0
1y7 = 0
2y9 - x43x9x1 - x90x9x1 = 0
1y20 = 0
1y20 = 0
1y29 = 0
1y29 = 0
2y124 - x43x124x3 = 0
2y136 - x90x136x1 = 0
2y141 = 0
1y111 - x90x111x2 - x20x111x2 = 0
1y111 - x43x111x3 = 0
1y115 - x43x115x1 - x90x115x1 - x20x115x1 - x110x115x1 - x9x115x1 - x9x115x1 - x136x115x1 = 0
1y115 - x43x115x3 - x7x115x3 - x120x115x3 - x172x115x3 - x124x115x3 = 0
1y2 - x43x2x1 - x90x2x1 - x20x2x1 - x110x2x1 - x9x2x1 - x9x2x1 - x136x2x1 = 0
1y2 - x7x2x2 - x90x2x2 - x20x2x2 - x172x2x2 - x110x2x2 - x111x2x2 = 0
1y53 - x43x53x1 - x90x53x1 - x20x53x1 - x110x53x1 - x9x53x1 - x9x53x1 - x136x53x1 - x141x53x1 = 0
1y53 - x7x53x2 - x90x53x2 - x20x53x2 - x172x53x2 - x110x53x2 - x111x53x2 = 0
1y30 - x43x30x1 - x90x30x1 - x20x30x1 - x9x30x1 - x9x30x1 - x20x30x1 - x136x30x1 - x141x30x1 = 0
1y30 - x7x30x2 - x90x30x2 - x20x30x2 - x172x30x2 - x20x30x2 - x111x30x2 = 0
2y121 - x7x121x2 - x90x121x2 - x20x121x2 - x172x121x2 - x110x121x2 - x20x121x2 - x29x121x2 - x111x121x2 - x30x121x2 = 0
1y73 - x43x73x1 - x90x73x1 - x20x73x1 - x110x73x1 - x9x73x1 - x9x73x1 - x136x73x1 - x141x73x1 = 0
1y73 - x43x73x3 - x7x73x3 - x120x73x3 - x172x73x3 - x124x73x3 - x111x73x3 = 0
1y134 - x43x134x1 - x90x134x1 - x20x134x1 - x110x134x1 - x9x134x1 - x9x134x1 - x20x134x1 - x136x134x1 - x141x134x1 - x53x134x1 = 0
1y134 - x43x134x3 - x7x134x3 - x120x134x3 - x172x134x3 - x7x134x3 - x124x134x3 - x111x134x3 = 0
1y137 - x80x137x2 - x7x137x2 - x90x137x2 - x20x137x2 - x172x137x2 - x110x137x2 - x7x137x2 - x20x137x2 - x29x137x2 - x111x137x2 - x2x137x2 - x53x137x2 = 0
1y137 - x43x137x3 - x80x137x3 - x7x137x3 - x120x137x3 - x172x137x3 - x7x137x3 - x124x137x3 - x111x137x3 - x115x137x3 - x73x137x3 = 0
2y87 - x80x87x2 - x7x87x2 - x90x87x2 - x20x87x2 - x172x87x2 - x110x87x2 - x7x87x2 - x20x87x2 - x29x87x2 - x111x87x2 - x2x87x2 - x53x87x2 - x30x87x2 - x121x87x2 = 0
2y81 - x43x81x3 - x80x81x3 - x7x81x3 - x120x81x3 - x172x81x3 - x7x81x3 - x124x81x3 - x111x81x3 - x115x81x3 - x73x81x3 - x134x81x3 - x137x81x3 = 0
1y179 - x43x179x1 - x90x179x1 - x20x179x1 - x110x179x1 - x9x179x1 - x9x179x1 - x20x179x1 - x29x179x1 - x136x179x1 - x141x179x1 - x115x179x1 - x2x179x1 - x53x179x1 - x30x179x1 - x73x179x1 - x134x179x1 = 0
1y179 - x43x179x3 - x80x179x3 - x7x179x3 - x120x179x3 - x172x179x3 - x7x179x3 - x124x179x3 - x111x179x3 - x115x179x3 - x73x179x3 - x134x179x3 - x137x179x3 = 0
1y1 - x43x1x1 - x90x1x1 - x20x1x1 - x110x1x1 - x9x1x1 - x9x1x1 - x20x1x1 - x29x1x1 - x136x1x1 - x141x1x1 - x115x1x1 - x2x1x1 - x53x1x1 - x30x1x1 - x73x1x1 - x134x1x1 = 0
1y1 - x43x1x3 - x80x1x3 - x7x1x3 - x120x1x3 - x172x1x3 - x7x1x3 - x124x1x3 - x111x1x3 - x115x1x3 - x73x1x3 - x134x1x3 - x137x1x3 - x81x1x3 = 0
1y12 - x80x12x2 - x7x12x2 - x90x12x2 - x20x12x2 - x172x12x2 - x110x12x2 - x7x12x2 - x20x12x2 - x29x12x2 - x111x12x2 - x2x12x2 - x53x12x2 - x30x12x2 - x121x12x2 - x137x12x2 - x87x12x2 = 0
1y12 - x43x12x3 - x80x12x3 - x7x12x3 - x120x12x3 - x172x12x3 - x7x12x3 - x124x12x3 - x111x12x3 - x115x12x3 - x73x12x3 - x134x12x3 - x137x12x3 - x81x12x3 = 0
1y127 - x43x127x1 - x90x127x1 - x20x127x1 - x110x127x1 - x9x127x1 - x9x127x1 - x20x127x1 - x29x127x1 - x136x127x1 - x141x127x1 - x115x127x1 - x2x127x1 - x53x127x1 - x30x127x1 - x73x127x1 - x134x127x1 = 0
1y127 - x80x127x2 - x7x127x2 - x90x127x2 - x20x127x2 - x172x127x2 - x110x127x2 - x7x127x2 - x20x127x2 - x29x127x2 - x111x127x2 - x2x127x2 - x53x127x2 - x30x127x2 - x121x127x2 - x137x127x2 - x87x127x2 = 0

s43 - s9 + 6.867732z43z9z1 <= 5.19
s43 - s124 + 6.824130z43z124z3 <= 5.19
s43 - s111 + 6.953671z43z111z3 <= 5.19
s43 - s115 + 6.763384z43z115z1 <= 5.19
s43 - s115 + 6.763384z43z115z3 <= 5.19
s43 - s2 + 6.780245z43z2z1 <= 5.19
s43 - s53 + 6.959511z43z53z1 <= 5.19
s43 - s30 + 7.019158z43z30z1 <= 5.19
s43 - s73 + 6.879561z43z73z1 <= 5.19
s43 - s73 + 6.879561z43z73z3 <= 5.19
s43 - s134 + 6.973836z43z134z1 <= 5.19
s43 - s134 + 6.973836z43z134z3 <= 5.19
s43 - s137 + 6.856658z43z137z3 <= 5.19
s43 - s81 + 6.979303z43z81z3 <= 5.19
s43 - s179 + 6.762379z43z179z1 <= 5.19
s43 - s179 + 6.762379z43z179z3 <= 5.19
s43 - s1 + 7.005138z43z1z1 <= 5.19
s43 - s1 + 7.005138z43z1z3 <= 5.19
s43 - s12 + 6.992946z43z12z3 <= 5.19
s43 - s127 + 7.066192z43z127z1 <= 5.19
s80 - s137 + 7.360597z80z137z2 <= 5.98
s80 - s137 + 7.360597z80z137z3 <= 5.98
s80 - s87 + 7.493839z80z87z2 <= 5.98
s80 - s81 + 7.488472z80z81z3 <= 5.98
s80 - s179 + 7.275064z80z179z3 <= 5.98
s80 - s1 + 7.519180z80z1z3 <= 5.98
s80 - s12 + 7.512116z80z12z2 <= 5.98
s80 - s12 + 7.512116z80z12z3 <= 5.98
s80 - s127 + 7.554669z80z127z2 <= 5.98
s7 - s115 + 7.079646z7z115z3 <= 5.81
s7 - s2 + 7.094466z7z2z2 <= 5.81
s7 - s53 + 7.143000z7z53z2 <= 5.81
s7 - s30 + 7.101861z7z30z2 <= 5.81
s7 - s121 + 7.120650z7z121z2 <= 5.81
s7 - s73 + 7.169666z7z73z3 <= 5.81
s7 - s134 + 7.176878z7z134z3 <= 5.81
s7 - s137 + 7.197767z7z137z2 <= 5.81
s7 - s137 + 7.197767z7z137z3 <= 5.81
s7 - s87 + 7.236541z7z87z2 <= 5.81
s7 - s81 + 7.281071z7z81z3 <= 5.81
s7 - s179 + 7.197595z7z179z3 <= 5.81
s7 - s1 + 7.316026z7z1z3 <= 5.81
s7 - s12 + 7.326494z7z12z2 <= 5.81
s7 - s12 + 7.326494z7z12z3 <= 5.81
s7 - s127 + 7.239033z7z127z2 <= 5.81
s90 - s9 + 6.680515z90z9z1 <= 5.27
s90 - s136 + 6.654374z90z136z1 <= 5.27
s90 - s111 + 6.766009z90z111z2 <= 5.27
s90 - s115 + 6.577895z90z115z1 <= 5.27
s90 - s2 + 6.596407z90z2z1 <= 5.27
s90 - s2 + 6.596407z90z2z2 <= 5.27
s90 - s53 + 6.775755z90z53z1 <= 5.27
s90 - s53 + 6.775755z90z53z2 <= 5.27
s90 - s30 + 6.831183z90z30z1 <= 5.27
s90 - s30 + 6.831183z90z30z2 <= 5.27
s90 - s121 + 6.828425z90z121z2 <= 5.27
s90 - s73 + 6.703215z90z73z1 <= 5.27
s90 - s134 + 6.792736z90z134z1 <= 5.27
s90 - s137 + 6.686590z90z137z2 <= 5.27
s90 - s87 + 6.822463z90z87z2 <= 5.27
s90 - s179 + 6.597851z90z179z1 <= 5.27
s90 - s1 + 6.843487z90z1z1 <= 5.27
s90 - s12 + 6.835196z90z12z2 <= 5.27
s90 - s127 + 6.885585z90z127z1 <= 5.27
s90 - s127 + 6.885585z90z127z2 <= 5.27
s20 - s111 + 6.965561z20z111z2 <= 5.77
s20 - s115 + 7.057388z20z115z1 <= 5.77
s20 - s2 + 7.063036z20z2z1 <= 5.77
s20 - s2 + 7.063036z20z2z2 <= 5.77
s20 - s53 + 7.039181z20z53z1 <= 5.77
s20 - s53 + 7.039181z20z53z2 <= 5.77
s20 - s30 + 6.965672z20z30z1 <= 5.77
s20 - s30 + 6.965672z20z30z2 <= 5.77
s20 - s121 + 6.990012z20z121z2 <= 5.77
s20 - s73 + 7.098317z20z73z1 <= 5.77
s20 - s134 + 7.072073z20z134z1 <= 5.77
s20 - s137 + 7.135402z20z137z2 <= 5.77
s20 - s87 + 7.131845z20z87z2 <= 5.77
s20 - s179 + 7.165117z20z179z1 <= 5.77
s20 - s1 + 7.219674z20z1z1 <= 5.77
s20 - s12 + 7.234821z20z12z2 <= 5.77
s20 - s127 + 7.112936z20z127z1 <= 5.77
s20 - s127 + 7.112936z20z127z2 <= 5.77
s120 - s115 + 6.856566z120z115z3 <= 5.58
s120 - s73 + 6.941540z120z73z3 <= 5.58
s120 - s134 + 7.040772z120z134z3 <= 5.58
s120 - s137 + 6.912131z120z137z3 <= 5.58
s120 - s81 + 7.029048z120z81z3 <= 5.58
s120 - s179 + 6.816737z120z179z3 <= 5.58
s120 - s1 + 7.052911z120z1z3 <= 5.58
s120 - s12 + 7.039613z120z12z3 <= 5.58
s172 - s115 + 6.987351z172z115z3 <= 5.70
s172 - s2 + 6.994267z172z2z2 <= 5.70
s172 - s53 + 7.158940z172z53z2 <= 5.70
s172 - s30 + 7.242183z172z30z2 <= 5.70
s172 - s121 + 7.230941z172z121z2 <= 5.70
s172 - s73 + 7.065070z172z73z3 <= 5.70
s172 - s134 + 7.164871z172z134z3 <= 5.70
s172 - s137 + 7.033930z172z137z2 <= 5.70
s172 - s137 + 7.033930z172z137z3 <= 5.70
s172 - s87 + 7.176228z172z87z2 <= 5.70
s172 - s81 + 7.148044z172z81z3 <= 5.70
s172 - s179 + 6.939012z172z179z3 <= 5.70
s172 - s1 + 7.170775z172z1z3 <= 5.70
s172 - s12 + 7.156683z172z12z2 <= 5.70
s172 - s12 + 7.156683z172z12z3 <= 5.70
s172 - s127 + 7.252951z172z127z2 <= 5.70
s110 - s115 + 7.038786z110z115z1 <= 5.87
s110 - s2 + 7.055951z110z2z1 <= 5.87
s110 - s2 + 7.055951z110z2z2 <= 5.87
s110 - s53 + 7.235453z110z53z1 <= 5.87
s110 - s53 + 7.235453z110z53z2 <= 5.87
s110 - s121 + 7.291901z110z121z2 <= 5.87
s110 - s73 + 7.162195z110z73z1 <= 5.87
s110 - s134 + 7.251634z110z134z1 <= 5.87
s110 - s137 + 7.147449z110z137z2 <= 5.87
s110 - s87 + 7.281447z110z87z2 <= 5.87
s110 - s179 + 7.063334z110z179z1 <= 5.87
s110 - s1 + 7.306247z110z1z1 <= 5.87
s110 - s12 + 7.299625z110z12z2 <= 5.87
s110 - s127 + 7.344459z110z127z1 <= 5.87
s110 - s127 + 7.344459z110z127z2 <= 5.87
s9 - s115 + 7.049821z9z115z1 <= 5.94
s9 - s2 + 7.040014z9z2z1 <= 5.94
s9 - s53 + 7.051472z9z53z1 <= 5.94
s9 - s30 + 7.096424z9z30z1 <= 5.94
s9 - s73 + 7.057061z9z73z1 <= 5.94
s9 - s134 + 7.080383z9z134z1 <= 5.94
s9 - s179 + 7.127337z9z179z1 <= 5.94
s9 - s1 + 7.204905z9z1z1 <= 5.94
s9 - s127 + 7.165756z9z127z1 <= 5.94
s7 - s134 + 7.507212z7z134z3 <= 6.14
s7 - s137 + 7.528101z7z137z2 <= 6.14
s7 - s137 + 7.528101z7z137z3 <= 6.14
s7 - s87 + 7.566875z7z87z2 <= 6.14
s7 - s81 + 7.611404z7z81z3 <= 6.14
s7 - s179 + 7.527929z7z179z3 <= 6.14
s7 - s1 + 7.646359z7z1z3 <= 6.14
s7 - s12 + 7.656828z7z12z2 <= 6.14
s7 - s12 + 7.656828z7z12z3 <= 6.14
s7 - s127 + 7.569366z7z127z2 <= 6.14
s9 - s115 + 8.046875z9z115z1 <= 6.94
s9 - s2 + 8.037068z9z2z1 <= 6.94
s9 - s53 + 8.048526z9z53z1 <= 6.94
s9 - s30 + 8.093478z9z30z1 <= 6.94
s9 - s73 + 8.054115z9z73z1 <= 6.94
s9 - s134 + 8.077436z9z134z1 <= 6.94
s9 - s179 + 8.124391z9z179z1 <= 6.94
s9 - s1 + 8.201959z9z1z1 <= 6.94
s9 - s127 + 8.162810z9z127z1 <= 6.94
s20 - s30 + 7.630555z20z30z1 <= 6.43
s20 - s30 + 7.630555z20z30z2 <= 6.43
s20 - s121 + 7.654895z20z121z2 <= 6.43
s20 - s134 + 7.736956z20z134z1 <= 6.43
s20 - s137 + 7.800285z20z137z2 <= 6.43
s20 - s87 + 7.796727z20z87z2 <= 6.43
s20 - s179 + 7.830000z20z179z1 <= 6.43
s20 - s1 + 7.884557z20z1z1 <= 6.43
s20 - s12 + 7.899704z20z12z2 <= 6.43
s20 - s127 + 7.777819z20z127z1 <= 6.43
s20 - s127 + 7.777819z20z127z2 <= 6.43
s29 - s121 + 7.394631z29z121z2 <= 6.09
s29 - s137 + 7.496667z29z137z2 <= 6.09
s29 - s87 + 7.521844z29z87z2 <= 6.09
s29 - s179 + 7.504943z29z179z1 <= 6.09
s29 - s1 + 7.604890z29z1z1 <= 6.09
s29 - s12 + 7.617046z29z12z2 <= 6.09
s29 - s127 + 7.516041z29z127z1 <= 6.09
s29 - s127 + 7.516041z29z127z2 <= 6.09
s124 - s115 + 7.957746z124z115z3 <= 6.88
s124 - s73 + 8.029072z124z73z3 <= 6.88
s124 - s134 + 8.068797z124z134z3 <= 6.88
s124 - s137 + 8.053461z124z137z3 <= 6.88
s124 - s81 + 8.149980z124z81z3 <= 6.88
s124 - s179 + 8.063061z124z179z3 <= 6.88
s124 - s1 + 8.185868z124z1z3 <= 6.88
s124 - s12 + 8.192267z124z12z3 <= 6.88
s136 - s115 + 7.885409z136z115z1 <= 6.78
s136 - s2 + 7.888526z136z2z1 <= 6.78
s136 - s53 + 7.941383z136z53z1 <= 6.78
s136 - s30 + 7.959506z136z30z1 <= 6.78
s136 - s73 + 7.946800z136z73z1 <= 6.78
s136 - s134 + 7.972296z136z134z1 <= 6.78
s136 - s179 + 7.990819z136z179z1 <= 6.78
s136 - s1 + 8.098678z136z1z1 <= 6.78
s136 - s127 + 8.053415z136z127z1 <= 6.78
s141 - s53 + 7.786667z141z53z1 <= 6.58
s141 - s30 + 7.726363z141z30z1 <= 6.58
s141 - s73 + 7.843734z141z73z1 <= 6.58
s141 - s134 + 7.820092z141z134z1 <= 6.58
s141 - s179 + 7.915526z141z179z1 <= 6.58
s141 - s1 + 7.966897z141z1z1 <= 6.58
s141 - s127 + 7.868829z141z127z1 <= 6.58
s111 - s2 + 8.211965z111z2z2 <= 7.03
s111 - s53 + 8.103636z111z53z2 <= 7.03
s111 - s30 + 8.096999z111z30z2 <= 7.03
s111 - s121 + 8.093246z111z121z2 <= 7.03
s111 - s73 + 8.181144z111z73z3 <= 7.03
s111 - s134 + 8.136667z111z134z3 <= 7.03
s111 - s137 + 8.223333z111z137z2 <= 7.03
s111 - s137 + 8.223333z111z137z3 <= 7.03
s111 - s87 + 8.196800z111z87z2 <= 7.03
s111 - s81 + 8.252511z111z81z3 <= 7.03
s111 - s179 + 8.286472z111z179z3 <= 7.03
s111 - s1 + 8.284122z111z1z3 <= 7.03
s111 - s12 + 8.299650z111z12z2 <= 7.03
s111 - s12 + 8.299650z111z12z3 <= 7.03
s111 - s127 + 8.194654z111z127z2 <= 7.03
s115 - s137 + 8.356212z115z137z3 <= 7.21
s115 - s81 + 8.476666z115z81z3 <= 7.21
s115 - s179 + 8.328134z115z179z1 <= 7.21
s115 - s179 + 8.328134z115z179z3 <= 7.21
s115 - s1 + 8.511478z115z1z1 <= 7.21
s115 - s1 + 8.511478z115z1z3 <= 7.21
s115 - s12 + 8.511847z115z12z3 <= 7.21
s115 - s127 + 8.520125z115z127z1 <= 7.21
s2 - s137 + 8.342565z2z137z2 <= 7.22
s2 - s87 + 8.453333z2z87z2 <= 7.22
s2 - s179 + 8.324349z2z179z1 <= 7.22
s2 - s1 + 8.497448z2z1z1 <= 7.22
s2 - s12 + 8.497849z2z12z2 <= 7.22
s2 - s127 + 8.509750z2z127z1 <= 7.22
s2 - s127 + 8.509750z2z127z2 <= 7.22
s53 - s134 + 8.283994z53z134z1 <= 7.25
s53 - s137 + 8.393139z53z137z2 <= 7.25
s53 - s87 + 8.344281z53z87z2 <= 7.25
s53 - s179 + 8.474895z53z179z1 <= 7.25
s53 - s1 + 8.430493z53z1z1 <= 7.25
s53 - s12 + 8.446186z53z12z2 <= 7.25
s53 - s127 + 8.364697z53z127z1 <= 7.25
s53 - s127 + 8.364697z53z127z2 <= 7.25
s30 - s121 + 8.287488z30z121z2 <= 7.26
s30 - s87 + 8.443424z30z87z2 <= 7.26
s30 - s179 + 8.579514z30z179z1 <= 7.26
s30 - s1 + 8.534064z30z1z1 <= 7.26
s30 - s12 + 8.553410z30z12z2 <= 7.26
s30 - s127 + 8.408024z30z127z1 <= 7.26
s30 - s127 + 8.408024z30z127z2 <= 7.26
s121 - s87 + 8.466063z121z87z2 <= 7.31
s121 - s12 + 8.576166z121z12z2 <= 7.31
s121 - s127 + 8.432927z121z127z2 <= 7.31
s73 - s137 + 8.362688z73z137z3 <= 7.32
s73 - s81 + 8.445786z73z81z3 <= 7.32
s73 - s179 + 8.446842z73z179z1 <= 7.32
s73 - s179 + 8.446842z73z179z3 <= 7.32
s73 - s1 + 8.481245z73z1z1 <= 7.32
s73 - s1 + 8.481245z73z1z3 <= 7.32
s73 - s12 + 8.484654z73z12z3 <= 7.32
s73 - s127 + 8.508562z73z127z1 <= 7.32
s134 - s81 + 8.488133z134z81z3 <= 7.37
s134 - s179 + 8.597058z134z179z1 <= 7.37
s134 - s179 + 8.597058z134z179z3 <= 7.37
s134 - s1 + 8.518024z134z1z1 <= 7.37
s134 - s1 + 8.518024z134z1z3 <= 7.37
s134 - s12 + 8.534925z134z12z3 <= 7.37
s134 - s127 + 8.462856z134z127z1 <= 7.37
s137 - s81 + 8.578062z137z81z3 <= 7.45
s137 - s179 + 8.545452z137z179z3 <= 7.45
s137 - s1 + 8.610277z137z1z3 <= 7.45
s137 - s12 + 8.607339z137z12z2 <= 7.45
s137 - s12 + 8.607339z137z12z3 <= 7.45
s137 - s127 + 8.670000z137z127z2 <= 7.45
s87 - s12 + 8.690353z87z12z2 <= 7.58
s87 - s127 + 8.664328z87z127z2 <= 7.58
s81 - s1 + 8.715900z81z1z3 <= 7.68
s81 - s12 + 8.727140z81z12z3 <= 7.68

x43x9x1 - 2z43z9z1 <= 0
x43x124x3 - 2z43z124z3 <= 0
x43x111x3 - 1z43z111z3 <= 0
x43x115x1 - 1z43z115z1 <= 0
x43x115x3 - 1z43z115z3 <= 0
x43x2x1 - 1z43z2z1 <= 0
x43x53x1 - 1z43z53z1 <= 0
x43x30x1 - 1z43z30z1 <= 0
x43x73x1 - 1z43z73z1 <= 0
x43x73x3 - 1z43z73z3 <= 0
x43x134x1 - 1z43z134z1 <= 0
x43x134x3 - 1z43z134z3 <= 0
x43x137x3 - 1z43z137z3 <= 0
x43x81x3 - 2z43z81z3 <= 0
x43x179x1 - 1z43z179z1 <= 0
x43x179x3 - 1z43z179z3 <= 0
x43x1x1 - 1z43z1z1 <= 0
x43x1x3 - 1z43z1z3 <= 0
x43x12x3 - 1z43z12z3 <= 0
x43x127x1 - 1z43z127z1 <= 0
x80x137x2 - 1z80z137z2 <= 0
x80x137x3 - 1z80z137z3 <= 0
x80x87x2 - 2z80z87z2 <= 0
x80x81x3 - 2z80z81z3 <= 0
x80x179x3 - 1z80z179z3 <= 0
x80x1x3 - 1z80z1z3 <= 0
x80x12x2 - 1z80z12z2 <= 0
x80x12x3 - 1z80z12z3 <= 0
x80x127x2 - 1z80z127z2 <= 0
x7x115x3 - 1z7z115z3 <= 0
x7x2x2 - 1z7z2z2 <= 0
x7x53x2 - 1z7z53z2 <= 0
x7x30x2 - 1z7z30z2 <= 0
x7x121x2 - 2z7z121z2 <= 0
x7x73x3 - 1z7z73z3 <= 0
x7x134x3 - 1z7z134z3 <= 0
x7x137x2 - 1z7z137z2 <= 0
x7x137x3 - 1z7z137z3 <= 0
x7x87x2 - 2z7z87z2 <= 0
x7x81x3 - 2z7z81z3 <= 0
x7x179x3 - 1z7z179z3 <= 0
x7x1x3 - 1z7z1z3 <= 0
x7x12x2 - 1z7z12z2 <= 0
x7x12x3 - 1z7z12z3 <= 0
x7x127x2 - 1z7z127z2 <= 0
x90x9x1 - 2z90z9z1 <= 0
x90x136x1 - 2z90z136z1 <= 0
x90x111x2 - 1z90z111z2 <= 0
x90x115x1 - 1z90z115z1 <= 0
x90x2x1 - 1z90z2z1 <= 0
x90x2x2 - 1z90z2z2 <= 0
x90x53x1 - 1z90z53z1 <= 0
x90x53x2 - 1z90z53z2 <= 0
x90x30x1 - 1z90z30z1 <= 0
x90x30x2 - 1z90z30z2 <= 0
x90x121x2 - 2z90z121z2 <= 0
x90x73x1 - 1z90z73z1 <= 0
x90x134x1 - 1z90z134z1 <= 0
x90x137x2 - 1z90z137z2 <= 0
x90x87x2 - 2z90z87z2 <= 0
x90x179x1 - 1z90z179z1 <= 0
x90x1x1 - 1z90z1z1 <= 0
x90x12x2 - 1z90z12z2 <= 0
x90x127x1 - 1z90z127z1 <= 0
x90x127x2 - 1z90z127z2 <= 0
x20x111x2 - 1z20z111z2 <= 0
x20x115x1 - 1z20z115z1 <= 0
x20x2x1 - 1z20z2z1 <= 0
x20x2x2 - 1z20z2z2 <= 0
x20x53x1 - 1z20z53z1 <= 0
x20x53x2 - 1z20z53z2 <= 0
x20x30x1 - 1z20z30z1 <= 0
x20x30x2 - 1z20z30z2 <= 0
x20x121x2 - 2z20z121z2 <= 0
x20x73x1 - 1z20z73z1 <= 0
x20x134x1 - 1z20z134z1 <= 0
x20x137x2 - 1z20z137z2 <= 0
x20x87x2 - 2z20z87z2 <= 0
x20x179x1 - 1z20z179z1 <= 0
x20x1x1 - 1z20z1z1 <= 0
x20x12x2 - 1z20z12z2 <= 0
x20x127x1 - 1z20z127z1 <= 0
x20x127x2 - 1z20z127z2 <= 0
x120x115x3 - 1z120z115z3 <= 0
x120x73x3 - 1z120z73z3 <= 0
x120x134x3 - 1z120z134z3 <= 0
x120x137x3 - 1z120z137z3 <= 0
x120x81x3 - 2z120z81z3 <= 0
x120x179x3 - 1z120z179z3 <= 0
x120x1x3 - 1z120z1z3 <= 0
x120x12x3 - 1z120z12z3 <= 0
x172x115x3 - 1z172z115z3 <= 0
x172x2x2 - 1z172z2z2 <= 0
x172x53x2 - 1z172z53z2 <= 0
x172x30x2 - 1z172z30z2 <= 0
x172x121x2 - 2z172z121z2 <= 0
x172x73x3 - 1z172z73z3 <= 0
x172x134x3 - 1z172z134z3 <= 0
x172x137x2 - 1z172z137z2 <= 0
x172x137x3 - 1z172z137z3 <= 0
x172x87x2 - 2z172z87z2 <= 0
x172x81x3 - 2z172z81z3 <= 0
x172x179x3 - 1z172z179z3 <= 0
x172x1x3 - 1z172z1z3 <= 0
x172x12x2 - 1z172z12z2 <= 0
x172x12x3 - 1z172z12z3 <= 0
x172x127x2 - 1z172z127z2 <= 0
x110x115x1 - 1z110z115z1 <= 0
x110x2x1 - 1z110z2z1 <= 0
x110x2x2 - 1z110z2z2 <= 0
x110x53x1 - 1z110z53z1 <= 0
x110x53x2 - 1z110z53z2 <= 0
x110x121x2 - 2z110z121z2 <= 0
x110x73x1 - 1z110z73z1 <= 0
x110x134x1 - 1z110z134z1 <= 0
x110x137x2 - 1z110z137z2 <= 0
x110x87x2 - 2z110z87z2 <= 0
x110x179x1 - 1z110z179z1 <= 0
x110x1x1 - 1z110z1z1 <= 0
x110x12x2 - 1z110z12z2 <= 0
x110x127x1 - 1z110z127z1 <= 0
x110x127x2 - 1z110z127z2 <= 0
x9x115x1 - 1z9z115z1 <= 0
x9x2x1 - 1z9z2z1 <= 0
x9x53x1 - 1z9z53z1 <= 0
x9x30x1 - 1z9z30z1 <= 0
x9x73x1 - 1z9z73z1 <= 0
x9x134x1 - 1z9z134z1 <= 0
x9x179x1 - 1z9z179z1 <= 0
x9x1x1 - 1z9z1z1 <= 0
x9x127x1 - 1z9z127z1 <= 0
x7x134x3 - 1z7z134z3 <= 0
x7x137x2 - 1z7z137z2 <= 0
x7x137x3 - 1z7z137z3 <= 0
x7x87x2 - 2z7z87z2 <= 0
x7x81x3 - 2z7z81z3 <= 0
x7x179x3 - 1z7z179z3 <= 0
x7x1x3 - 1z7z1z3 <= 0
x7x12x2 - 1z7z12z2 <= 0
x7x12x3 - 1z7z12z3 <= 0
x7x127x2 - 1z7z127z2 <= 0
x7x0x2 <= 1
x7x0x3 <= 1
x9x115x1 - 1z9z115z1 <= 0
x9x2x1 - 1z9z2z1 <= 0
x9x53x1 - 1z9z53z1 <= 0
x9x30x1 - 1z9z30z1 <= 0
x9x73x1 - 1z9z73z1 <= 0
x9x134x1 - 1z9z134z1 <= 0
x9x179x1 - 1z9z179z1 <= 0
x9x1x1 - 1z9z1z1 <= 0
x9x127x1 - 1z9z127z1 <= 0
x9x0x1 <= 2
x20x30x1 - 1z20z30z1 <= 0
x20x30x2 - 1z20z30z2 <= 0
x20x121x2 - 2z20z121z2 <= 0
x20x134x1 - 1z20z134z1 <= 0
x20x137x2 - 1z20z137z2 <= 0
x20x87x2 - 2z20z87z2 <= 0
x20x179x1 - 1z20z179z1 <= 0
x20x1x1 - 1z20z1z1 <= 0
x20x12x2 - 1z20z12z2 <= 0
x20x127x1 - 1z20z127z1 <= 0
x20x127x2 - 1z20z127z2 <= 0
x20x0x1 <= 1
x20x0x2 <= 1
x29x121x2 - 2z29z121z2 <= 0
x29x137x2 - 1z29z137z2 <= 0
x29x87x2 - 2z29z87z2 <= 0
x29x179x1 - 1z29z179z1 <= 0
x29x1x1 - 1z29z1z1 <= 0
x29x12x2 - 1z29z12z2 <= 0
x29x127x1 - 1z29z127z1 <= 0
x29x127x2 - 1z29z127z2 <= 0
x29x0x1 <= 1
x29x0x2 <= 1
x124x115x3 - 1z124z115z3 <= 0
x124x73x3 - 1z124z73z3 <= 0
x124x134x3 - 1z124z134z3 <= 0
x124x137x3 - 1z124z137z3 <= 0
x124x81x3 - 2z124z81z3 <= 0
x124x179x3 - 1z124z179z3 <= 0
x124x1x3 - 1z124z1z3 <= 0
x124x12x3 - 1z124z12z3 <= 0
x124x0x3 <= 2
x136x115x1 - 1z136z115z1 <= 0
x136x2x1 - 1z136z2z1 <= 0
x136x53x1 - 1z136z53z1 <= 0
x136x30x1 - 1z136z30z1 <= 0
x136x73x1 - 1z136z73z1 <= 0
x136x134x1 - 1z136z134z1 <= 0
x136x179x1 - 1z136z179z1 <= 0
x136x1x1 - 1z136z1z1 <= 0
x136x127x1 - 1z136z127z1 <= 0
x136x0x1 <= 2
x141x53x1 - 1z141z53z1 <= 0
x141x30x1 - 1z141z30z1 <= 0
x141x73x1 - 1z141z73z1 <= 0
x141x134x1 - 1z141z134z1 <= 0
x141x179x1 - 1z141z179z1 <= 0
x141x1x1 - 1z141z1z1 <= 0
x141x127x1 - 1z141z127z1 <= 0
x141x0x1 <= 2
x111x2x2 - 1z111z2z2 <= 0
x111x53x2 - 1z111z53z2 <= 0
x111x30x2 - 1z111z30z2 <= 0
x111x121x2 - 2z111z121z2 <= 0
x111x73x3 - 1z111z73z3 <= 0
x111x134x3 - 1z111z134z3 <= 0
x111x137x2 - 1z111z137z2 <= 0
x111x137x3 - 1z111z137z3 <= 0
x111x87x2 - 2z111z87z2 <= 0
x111x81x3 - 2z111z81z3 <= 0
x111x179x3 - 1z111z179z3 <= 0
x111x1x3 - 1z111z1z3 <= 0
x111x12x2 - 1z111z12z2 <= 0
x111x12x3 - 1z111z12z3 <= 0
x111x127x2 - 1z111z127z2 <= 0
x111x0x2 <= 1
x111x0x3 <= 1
x115x137x3 - 1z115z137z3 <= 0
x115x81x3 - 2z115z81z3 <= 0
x115x179x1 - 1z115z179z1 <= 0
x115x179x3 - 1z115z179z3 <= 0
x115x1x1 - 1z115z1z1 <= 0
x115x1x3 - 1z115z1z3 <= 0
x115x12x3 - 1z115z12z3 <= 0
x115x127x1 - 1z115z127z1 <= 0
x115x0x1 <= 1
x115x0x3 <= 1
x2x137x2 - 1z2z137z2 <= 0
x2x87x2 - 2z2z87z2 <= 0
x2x179x1 - 1z2z179z1 <= 0
x2x1x1 - 1z2z1z1 <= 0
x2x12x2 - 1z2z12z2 <= 0
x2x127x1 - 1z2z127z1 <= 0
x2x127x2 - 1z2z127z2 <= 0
x2x0x1 <= 1
x2x0x2 <= 1
x53x134x1 - 1z53z134z1 <= 0
x53x137x2 - 1z53z137z2 <= 0
x53x87x2 - 2z53z87z2 <= 0
x53x179x1 - 1z53z179z1 <= 0
x53x1x1 - 1z53z1z1 <= 0
x53x12x2 - 1z53z12z2 <= 0
x53x127x1 - 1z53z127z1 <= 0
x53x127x2 - 1z53z127z2 <= 0
x53x0x1 <= 1
x53x0x2 <= 1
x30x121x2 - 2z30z121z2 <= 0
x30x87x2 - 2z30z87z2 <= 0
x30x179x1 - 1z30z179z1 <= 0
x30x1x1 - 1z30z1z1 <= 0
x30x12x2 - 1z30z12z2 <= 0
x30x127x1 - 1z30z127z1 <= 0
x30x127x2 - 1z30z127z2 <= 0
x30x0x1 <= 1
x30x0x2 <= 1
x121x87x2 - 2z121z87z2 <= 0
x121x12x2 - 1z121z12z2 <= 0
x121x127x2 - 1z121z127z2 <= 0
x121x0x2 <= 2
x73x137x3 - 1z73z137z3 <= 0
x73x81x3 - 2z73z81z3 <= 0
x73x179x1 - 1z73z179z1 <= 0
x73x179x3 - 1z73z179z3 <= 0
x73x1x1 - 1z73z1z1 <= 0
x73x1x3 - 1z73z1z3 <= 0
x73x12x3 - 1z73z12z3 <= 0
x73x127x1 - 1z73z127z1 <= 0
x73x0x1 <= 1
x73x0x3 <= 1
x134x81x3 - 2z134z81z3 <= 0
x134x179x1 - 1z134z179z1 <= 0
x134x179x3 - 1z134z179z3 <= 0
x134x1x1 - 1z134z1z1 <= 0
x134x1x3 - 1z134z1z3 <= 0
x134x12x3 - 1z134z12z3 <= 0
x134x127x1 - 1z134z127z1 <= 0
x134x0x1 <= 1
x134x0x3 <= 1
x137x81x3 - 2z137z81z3 <= 0
x137x179x3 - 1z137z179z3 <= 0
x137x1x3 - 1z137z1z3 <= 0
x137x12x2 - 1z137z12z2 <= 0
x137x12x3 - 1z137z12z3 <= 0
x137x127x2 - 1z137z127z2 <= 0
x137x0x2 <= 1
x137x0x3 <= 1
x87x12x2 - 1z87z12z2 <= 0
x87x127x2 - 1z87z127z2 <= 0
x87x0x2 <= 2
x81x1x3 - 1z81z1z3 <= 0
x81x12x3 - 1z81z12z3 <= 0
x81x0x3 <= 2
x179x0x1 <= 1
x179x0x3 <= 1
x1x0x1 <= 1
x1x0x3 <= 1
x12x0x2 <= 1
x12x0x3 <= 1
x127x0x1 <= 1
x127x0x2 <= 1

Bounds
s43 = 5.187961
s80 = 5.977742
s7 = 5.809666
s90 = 5.273848
s20 = 5.765117
s120 = 5.580000
s172 = 5.704823
s110 = 5.870000
s9 = 5.942946
6.000000 <= s7 <= 6.140000
6.000000 <= s9 <= 6.940000
6.000000 <= s20 <= 6.430000
6.000000 <= s29 <= 6.090000
6.000000 <= s124 <= 6.880000
6.000000 <= s136 <= 6.780000
6.000000 <= s141 <= 6.580000
6.030000 <= s111 <= 7.030000
6.210000 <= s115 <= 7.210000
6.220000 <= s2 <= 7.220000
6.250000 <= s53 <= 7.250000
6.260000 <= s30 <= 7.260000
6.310000 <= s121 <= 7.310000
6.320000 <= s73 <= 7.320000
6.370000 <= s134 <= 7.370000
6.450000 <= s137 <= 7.450000
6.580000 <= s87 <= 7.580000
6.680000 <= s81 <= 7.680000
6.720000 <= s179 <= 7.720000
6.810000 <= s1 <= 7.810000
6.820000 <= s12 <= 7.820000
6.820000 <= s127 <= 7.820000

General
x43x9x1 x43x124x3 x43x111x3 x43x115x1 x43x115x3 x43x2x1 x43x53x1 x43x30x1 x43x73x1 x43x73x3 x43x134x1 x43x134x3 x43x137x3 x43x81x3 x43x179x1 x43x179x3 x43x1x1 x43x1x3 x43x12x3 x43x127x1 
x80x137x2 x80x137x3 x80x87x2 x80x81x3 x80x179x3 x80x1x3 x80x12x2 x80x12x3 x80x127x2 
x7x115x3 x7x2x2 x7x53x2 x7x30x2 x7x121x2 x7x73x3 x7x134x3 x7x137x2 x7x137x3 x7x87x2 x7x81x3 x7x179x3 x7x1x3 x7x12x2 x7x12x3 x7x127x2 
x90x9x1 x90x136x1 x90x111x2 x90x115x1 x90x2x1 x90x2x2 x90x53x1 x90x53x2 x90x30x1 x90x30x2 x90x121x2 x90x73x1 x90x134x1 x90x137x2 x90x87x2 x90x179x1 x90x1x1 x90x12x2 x90x127x1 x90x127x2 
x20x111x2 x20x115x1 x20x2x1 x20x2x2 x20x53x1 x20x53x2 x20x30x1 x20x30x2 x20x121x2 x20x73x1 x20x134x1 x20x137x2 x20x87x2 x20x179x1 x20x1x1 x20x12x2 x20x127x1 x20x127x2 
x120x115x3 x120x73x3 x120x134x3 x120x137x3 x120x81x3 x120x179x3 x120x1x3 x120x12x3 
x172x115x3 x172x2x2 x172x53x2 x172x30x2 x172x121x2 x172x73x3 x172x134x3 x172x137x2 x172x137x3 x172x87x2 x172x81x3 x172x179x3 x172x1x3 x172x12x2 x172x12x3 x172x127x2 
x110x115x1 x110x2x1 x110x2x2 x110x53x1 x110x53x2 x110x121x2 x110x73x1 x110x134x1 x110x137x2 x110x87x2 x110x179x1 x110x1x1 x110x12x2 x110x127x1 x110x127x2 
x9x115x1 x9x2x1 x9x53x1 x9x30x1 x9x73x1 x9x134x1 x9x179x1 x9x1x1 x9x127x1 
x7x134x3 x7x137x2 x7x137x3 x7x87x2 x7x81x3 x7x179x3 x7x1x3 x7x12x2 x7x12x3 x7x127x2 x7x0x2 x7x0x3 
x9x115x1 x9x2x1 x9x53x1 x9x30x1 x9x73x1 x9x134x1 x9x179x1 x9x1x1 x9x127x1 x9x0x1 
x20x30x1 x20x30x2 x20x121x2 x20x134x1 x20x137x2 x20x87x2 x20x179x1 x20x1x1 x20x12x2 x20x127x1 x20x127x2 x20x0x1 x20x0x2 
x29x121x2 x29x137x2 x29x87x2 x29x179x1 x29x1x1 x29x12x2 x29x127x1 x29x127x2 x29x0x1 x29x0x2 
x124x115x3 x124x73x3 x124x134x3 x124x137x3 x124x81x3 x124x179x3 x124x1x3 x124x12x3 x124x0x3 
x136x115x1 x136x2x1 x136x53x1 x136x30x1 x136x73x1 x136x134x1 x136x179x1 x136x1x1 x136x127x1 x136x0x1 
x141x53x1 x141x30x1 x141x73x1 x141x134x1 x141x179x1 x141x1x1 x141x127x1 x141x0x1 
x111x2x2 x111x53x2 x111x30x2 x111x121x2 x111x73x3 x111x134x3 x111x137x2 x111x137x3 x111x87x2 x111x81x3 x111x179x3 x111x1x3 x111x12x2 x111x12x3 x111x127x2 x111x0x2 x111x0x3 
x115x137x3 x115x81x3 x115x179x1 x115x179x3 x115x1x1 x115x1x3 x115x12x3 x115x127x1 x115x0x1 x115x0x3 
x2x137x2 x2x87x2 x2x179x1 x2x1x1 x2x12x2 x2x127x1 x2x127x2 x2x0x1 x2x0x2 
x53x134x1 x53x137x2 x53x87x2 x53x179x1 x53x1x1 x53x12x2 x53x127x1 x53x127x2 x53x0x1 x53x0x2 
x30x121x2 x30x87x2 x30x179x1 x30x1x1 x30x12x2 x30x127x1 x30x127x2 x30x0x1 x30x0x2 
x121x87x2 x121x12x2 x121x127x2 x121x0x2 
x73x137x3 x73x81x3 x73x179x1 x73x179x3 x73x1x1 x73x1x3 x73x12x3 x73x127x1 x73x0x1 x73x0x3 
x134x81x3 x134x179x1 x134x179x3 x134x1x1 x134x1x3 x134x12x3 x134x127x1 x134x0x1 x134x0x3 
x137x81x3 x137x179x3 x137x1x3 x137x12x2 x137x12x3 x137x127x2 x137x0x2 x137x0x3 
x87x12x2 x87x127x2 x87x0x2 
x81x1x3 x81x12x3 x81x0x3 
x179x0x1 x179x0x3 
x1x0x1 x1x0x3 
x12x0x2 x12x0x3 
x127x0x1 x127x0x2 

Binaries
y7 y9 y20 y29 y124 y136 y141 y111 y115 y2 y53 y30 y121 y73 y134 y137 y87 y81 y179 y1 y12 y127 
z43z9z1 z43z124z3 z43z111z3 z43z115z1 z43z115z3 z43z2z1 z43z53z1 z43z30z1 z43z73z1 z43z73z3 z43z134z1 z43z134z3 z43z137z3 z43z81z3 z43z179z1 z43z179z3 z43z1z1 z43z1z3 z43z12z3 z43z127z1 
z80z137z2 z80z137z3 z80z87z2 z80z81z3 z80z179z3 z80z1z3 z80z12z2 z80z12z3 z80z127z2 
z7z115z3 z7z2z2 z7z53z2 z7z30z2 z7z121z2 z7z73z3 z7z134z3 z7z137z2 z7z137z3 z7z87z2 z7z81z3 z7z179z3 z7z1z3 z7z12z2 z7z12z3 z7z127z2 
z90z9z1 z90z136z1 z90z111z2 z90z115z1 z90z2z1 z90z2z2 z90z53z1 z90z53z2 z90z30z1 z90z30z2 z90z121z2 z90z73z1 z90z134z1 z90z137z2 z90z87z2 z90z179z1 z90z1z1 z90z12z2 z90z127z1 z90z127z2 
z20z111z2 z20z115z1 z20z2z1 z20z2z2 z20z53z1 z20z53z2 z20z30z1 z20z30z2 z20z121z2 z20z73z1 z20z134z1 z20z137z2 z20z87z2 z20z179z1 z20z1z1 z20z12z2 z20z127z1 z20z127z2 
z120z115z3 z120z73z3 z120z134z3 z120z137z3 z120z81z3 z120z179z3 z120z1z3 z120z12z3 
z172z115z3 z172z2z2 z172z53z2 z172z30z2 z172z121z2 z172z73z3 z172z134z3 z172z137z2 z172z137z3 z172z87z2 z172z81z3 z172z179z3 z172z1z3 z172z12z2 z172z12z3 z172z127z2 
z110z115z1 z110z2z1 z110z2z2 z110z53z1 z110z53z2 z110z121z2 z110z73z1 z110z134z1 z110z137z2 z110z87z2 z110z179z1 z110z1z1 z110z12z2 z110z127z1 z110z127z2 
z9z115z1 z9z2z1 z9z53z1 z9z30z1 z9z73z1 z9z134z1 z9z179z1 z9z1z1 z9z127z1 
z7z134z3 z7z137z2 z7z137z3 z7z87z2 z7z81z3 z7z179z3 z7z1z3 z7z12z2 z7z12z3 z7z127z2 
z9z115z1 z9z2z1 z9z53z1 z9z30z1 z9z73z1 z9z134z1 z9z179z1 z9z1z1 z9z127z1 
z20z30z1 z20z30z2 z20z121z2 z20z134z1 z20z137z2 z20z87z2 z20z179z1 z20z1z1 z20z12z2 z20z127z1 z20z127z2 
z29z121z2 z29z137z2 z29z87z2 z29z179z1 z29z1z1 z29z12z2 z29z127z1 z29z127z2 
z124z115z3 z124z73z3 z124z134z3 z124z137z3 z124z81z3 z124z179z3 z124z1z3 z124z12z3 
z136z115z1 z136z2z1 z136z53z1 z136z30z1 z136z73z1 z136z134z1 z136z179z1 z136z1z1 z136z127z1 
z141z53z1 z141z30z1 z141z73z1 z141z134z1 z141z179z1 z141z1z1 z141z127z1 
z111z2z2 z111z53z2 z111z30z2 z111z121z2 z111z73z3 z111z134z3 z111z137z2 z111z137z3 z111z87z2 z111z81z3 z111z179z3 z111z1z3 z111z12z2 z111z12z3 z111z127z2 
z115z137z3 z115z81z3 z115z179z1 z115z179z3 z115z1z1 z115z1z3 z115z12z3 z115z127z1 
z2z137z2 z2z87z2 z2z179z1 z2z1z1 z2z12z2 z2z127z1 z2z127z2 
z53z134z1 z53z137z2 z53z87z2 z53z179z1 z53z1z1 z53z12z2 z53z127z1 z53z127z2 
z30z121z2 z30z87z2 z30z179z1 z30z1z1 z30z12z2 z30z127z1 z30z127z2 
z121z87z2 z121z12z2 z121z127z2 
z73z137z3 z73z81z3 z73z179z1 z73z179z3 z73z1z1 z73z1z3 z73z12z3 z73z127z1 
z134z81z3 z134z179z1 z134z179z3 z134z1z1 z134z1z3 z134z12z3 z134z127z1 
z137z81z3 z137z179z3 z137z1z3 z137z12z2 z137z12z3 z137z127z2 
z87z12z2 z87z127z2 
z81z1z3 z81z12z3 





End